# Solution for model FSG
# Objective value = 1.8981070922820904e+03
x_0_1 0
x_0_2 0
x_0_3 1
x_0_4 1
x_0_5 0
x_0_6 0
x_0_7 0
x_0_8 0
x_0_9 0
x_0_10 1
x_0_11 0
x_0_12 0
x_0_13 0
x_1_2 0
x_1_3 0
x_1_4 0
x_1_5 0
x_1_6 0
x_1_7 0
x_1_8 0
x_1_9 0
x_1_10 0
x_1_11 1
x_1_12 0
x_1_13 0
x_2_1 0
x_2_3 0
x_2_4 0
x_2_5 0
x_2_6 0
x_2_7 0
x_2_8 0
x_2_9 0
x_2_10 0
x_2_11 0
x_2_12 1
x_2_13 0
x_3_1 0
x_3_2 0
x_3_4 0
x_3_5 0
x_3_6 1
x_3_7 0
x_3_8 0
x_3_9 0
x_3_10 0
x_3_11 0
x_3_12 0
x_3_13 0
x_4_1 0
x_4_2 0
x_4_3 0
x_4_5 0
x_4_6 0
x_4_7 0
x_4_8 0
x_4_9 1
x_4_10 0
x_4_11 0
x_4_12 0
x_4_13 0
x_5_1 0
x_5_2 0
x_5_3 0
x_5_4 0
x_5_6 0
x_5_7 0
x_5_8 1
x_5_9 0
x_5_10 0
x_5_11 0
x_5_12 0
x_5_13 0
x_6_1 0
x_6_2 1
x_6_3 0
x_6_4 0
x_6_5 0
x_6_7 0
x_6_8 0
x_6_9 0
x_6_10 0
x_6_11 0
x_6_12 0
x_6_13 0
x_7_1 1
x_7_2 0
x_7_3 0
x_7_4 0
x_7_5 0
x_7_6 0
x_7_8 0
x_7_9 0
x_7_10 0
x_7_11 0
x_7_12 0
x_7_13 0
x_8_1 0
x_8_2 0
x_8_3 0
x_8_4 0
x_8_5 0
x_8_6 0
x_8_7 0
x_8_9 0
x_8_10 0
x_8_11 0
x_8_12 0
x_8_13 1
x_9_1 0
x_9_2 0
x_9_3 0
x_9_4 0
x_9_5 1
x_9_6 0
x_9_7 0
x_9_8 0
x_9_10 0
x_9_11 0
x_9_12 0
x_9_13 0
x_10_1 0
x_10_2 0
x_10_3 0
x_10_4 0
x_10_5 0
x_10_6 0
x_10_7 1
x_10_8 0
x_10_9 0
x_10_11 0
x_10_12 0
x_10_13 0
U_1_1 0
U_1_2 0
U_1_3 1
U_2_1 0
U_2_2 0
U_2_3 1
U_3_1 1
U_3_2 0
U_3_3 0
U_4_1 0
U_4_2 1
U_4_3 0
U_5_1 0
U_5_2 1
U_5_3 0
U_6_1 0
U_6_2 0
U_6_3 1
U_7_1 1
U_7_2 0
U_7_3 0
U_8_1 0
U_8_2 0
U_8_3 1
U_9_1 0
U_9_2 1
U_9_3 0
U_10_1 1
U_10_2 0
U_10_3 0
U_11_1 0
U_11_2 0
U_11_3 1
U_12_1 0
U_12_2 0
U_12_3 1
U_13_1 0
U_13_2 0
U_13_3 1
TBar_0 0
TBar_1 2.2611924650596830e+01
TBar_2 2.4697705693663156e+01
TBar_3 2.7218098556958417e+00
TBar_4 10
TBar_5 20
TBar_6 20
TBar_7 10
TBar_8 2.4201059390201479e+01
TBar_9 1.2245885126180767e+01
TBar_10 7.38807534940317
TBar_11 2.7948590276247362e+01
TBar_12 2.7278190144304158e+01
TBar_13 2.9417360761863204e+01
y_0_1_1 0
y_0_1_2 0
y_0_1_3 0
y_0_1_4 0
y_0_1_5 0
y_0_2_1 0
y_0_2_2 0
y_0_2_3 0
y_0_2_4 0
y_0_2_5 0
y_0_3_1 0
y_0_3_2 0
y_0_3_3 0
y_0_3_4 0
y_0_3_5 0
y_0_4_1 0
y_0_4_2 0
y_0_4_3 0
y_0_4_4 0
y_0_4_5 0
y_0_5_1 0
y_0_5_2 0
y_0_5_3 0
y_0_5_4 0
y_0_5_5 0
y_0_6_1 0
y_0_6_2 0
y_0_6_3 0
y_0_6_4 0
y_0_6_5 0
y_0_7_1 0
y_0_7_2 0
y_0_7_3 0
y_0_7_4 0
y_0_7_5 0
y_0_8_1 0
y_0_8_2 0
y_0_8_3 0
y_0_8_4 0
y_0_8_5 0
y_0_9_1 0
y_0_9_2 0
y_0_9_3 0
y_0_9_4 0
y_0_9_5 0
y_0_10_1 0
y_0_10_2 0
y_0_10_3 0
y_0_10_4 0
y_0_10_5 0
y_0_11_1 0
y_0_11_2 0
y_0_11_3 0
y_0_11_4 0
y_0_11_5 0
y_0_12_1 0
y_0_12_2 0
y_0_12_3 0
y_0_12_4 0
y_0_12_5 0
y_0_13_1 0
y_0_13_2 0
y_0_13_3 0
y_0_13_4 0
y_0_13_5 0
y_1_2_1 0
y_1_2_2 0
y_1_2_3 0
y_1_2_4 0
y_1_2_5 0
y_1_3_1 0
y_1_3_2 0
y_1_3_3 0
y_1_3_4 0
y_1_3_5 0
y_1_4_1 0
y_1_4_2 0
y_1_4_3 0
y_1_4_4 0
y_1_4_5 0
y_1_5_1 0
y_1_5_2 0
y_1_5_3 0
y_1_5_4 0
y_1_5_5 0
y_1_6_1 0
y_1_6_2 0
y_1_6_3 0
y_1_6_4 0
y_1_6_5 0
y_1_7_1 0
y_1_7_2 0
y_1_7_3 0
y_1_7_4 0
y_1_7_5 0
y_1_8_1 0
y_1_8_2 0
y_1_8_3 0
y_1_8_4 0
y_1_8_5 0
y_1_9_1 0
y_1_9_2 0
y_1_9_3 0
y_1_9_4 0
y_1_9_5 0
y_1_10_1 0
y_1_10_2 0
y_1_10_3 0
y_1_10_4 0
y_1_10_5 0
y_1_11_1 0
y_1_11_2 0
y_1_11_3 0
y_1_11_4 0
y_1_11_5 0
y_1_12_1 0
y_1_12_2 0
y_1_12_3 0
y_1_12_4 0
y_1_12_5 0
y_1_13_1 0
y_1_13_2 0
y_1_13_3 0
y_1_13_4 0
y_1_13_5 0
y_2_1_1 0
y_2_1_2 0
y_2_1_3 0
y_2_1_4 0
y_2_1_5 0
y_2_3_1 0
y_2_3_2 0
y_2_3_3 0
y_2_3_4 0
y_2_3_5 0
y_2_4_1 0
y_2_4_2 0
y_2_4_3 0
y_2_4_4 0
y_2_4_5 0
y_2_5_1 0
y_2_5_2 0
y_2_5_3 0
y_2_5_4 0
y_2_5_5 0
y_2_6_1 0
y_2_6_2 0
y_2_6_3 0
y_2_6_4 0
y_2_6_5 0
y_2_7_1 0
y_2_7_2 0
y_2_7_3 0
y_2_7_4 0
y_2_7_5 0
y_2_8_1 0
y_2_8_2 0
y_2_8_3 0
y_2_8_4 0
y_2_8_5 0
y_2_9_1 0
y_2_9_2 0
y_2_9_3 0
y_2_9_4 0
y_2_9_5 0
y_2_10_1 0
y_2_10_2 0
y_2_10_3 0
y_2_10_4 0
y_2_10_5 0
y_2_11_1 0
y_2_11_2 0
y_2_11_3 0
y_2_11_4 0
y_2_11_5 0
y_2_12_1 0
y_2_12_2 0
y_2_12_3 0
y_2_12_4 0
y_2_12_5 0
y_2_13_1 0
y_2_13_2 0
y_2_13_3 0
y_2_13_4 0
y_2_13_5 0
y_3_1_1 0
y_3_1_2 0
y_3_1_3 0
y_3_1_4 0
y_3_1_5 0
y_3_2_1 0
y_3_2_2 0
y_3_2_3 0
y_3_2_4 0
y_3_2_5 0
y_3_4_1 0
y_3_4_2 0
y_3_4_3 0
y_3_4_4 0
y_3_4_5 0
y_3_5_1 0
y_3_5_2 0
y_3_5_3 0
y_3_5_4 0
y_3_5_5 0
y_3_6_1 0
y_3_6_2 0
y_3_6_3 0
y_3_6_4 0
y_3_6_5 0
y_3_7_1 0
y_3_7_2 0
y_3_7_3 0
y_3_7_4 0
y_3_7_5 0
y_3_8_1 0
y_3_8_2 0
y_3_8_3 0
y_3_8_4 0
y_3_8_5 0
y_3_9_1 0
y_3_9_2 0
y_3_9_3 0
y_3_9_4 0
y_3_9_5 0
y_3_10_1 0
y_3_10_2 0
y_3_10_3 0
y_3_10_4 0
y_3_10_5 0
y_3_11_1 0
y_3_11_2 0
y_3_11_3 0
y_3_11_4 0
y_3_11_5 0
y_3_12_1 0
y_3_12_2 0
y_3_12_3 0
y_3_12_4 0
y_3_12_5 0
y_3_13_1 0
y_3_13_2 0
y_3_13_3 0
y_3_13_4 0
y_3_13_5 0
y_4_1_1 0
y_4_1_2 0
y_4_1_3 0
y_4_1_4 0
y_4_1_5 0
y_4_2_1 0
y_4_2_2 0
y_4_2_3 0
y_4_2_4 0
y_4_2_5 0
y_4_3_1 0
y_4_3_2 0
y_4_3_3 0
y_4_3_4 0
y_4_3_5 0
y_4_5_1 0
y_4_5_2 0
y_4_5_3 0
y_4_5_4 0
y_4_5_5 0
y_4_6_1 0
y_4_6_2 0
y_4_6_3 0
y_4_6_4 0
y_4_6_5 0
y_4_7_1 0
y_4_7_2 0
y_4_7_3 0
y_4_7_4 0
y_4_7_5 0
y_4_8_1 0
y_4_8_2 0
y_4_8_3 0
y_4_8_4 0
y_4_8_5 0
y_4_9_1 0
y_4_9_2 0
y_4_9_3 0
y_4_9_4 0
y_4_9_5 0
y_4_10_1 0
y_4_10_2 0
y_4_10_3 0
y_4_10_4 0
y_4_10_5 0
y_4_11_1 0
y_4_11_2 0
y_4_11_3 0
y_4_11_4 0
y_4_11_5 0
y_4_12_1 0
y_4_12_2 0
y_4_12_3 0
y_4_12_4 0
y_4_12_5 0
y_4_13_1 0
y_4_13_2 0
y_4_13_3 0
y_4_13_4 0
y_4_13_5 0
y_5_1_1 0
y_5_1_2 0
y_5_1_3 0
y_5_1_4 0
y_5_1_5 0
y_5_2_1 0
y_5_2_2 0
y_5_2_3 0
y_5_2_4 0
y_5_2_5 0
y_5_3_1 0
y_5_3_2 0
y_5_3_3 0
y_5_3_4 0
y_5_3_5 0
y_5_4_1 0
y_5_4_2 0
y_5_4_3 0
y_5_4_4 0
y_5_4_5 0
y_5_6_1 0
y_5_6_2 0
y_5_6_3 0
y_5_6_4 0
y_5_6_5 0
y_5_7_1 0
y_5_7_2 0
y_5_7_3 0
y_5_7_4 0
y_5_7_5 0
y_5_8_1 1
y_5_8_2 1
y_5_8_3 1
y_5_8_4 1
y_5_8_5 1
y_5_9_1 0
y_5_9_2 0
y_5_9_3 0
y_5_9_4 0
y_5_9_5 0
y_5_10_1 0
y_5_10_2 0
y_5_10_3 0
y_5_10_4 0
y_5_10_5 0
y_5_11_1 0
y_5_11_2 0
y_5_11_3 0
y_5_11_4 0
y_5_11_5 0
y_5_12_1 0
y_5_12_2 0
y_5_12_3 0
y_5_12_4 0
y_5_12_5 0
y_5_13_1 0
y_5_13_2 0
y_5_13_3 0
y_5_13_4 0
y_5_13_5 0
y_6_1_1 0
y_6_1_2 0
y_6_1_3 0
y_6_1_4 0
y_6_1_5 0
y_6_2_1 0
y_6_2_2 0
y_6_2_3 0
y_6_2_4 0
y_6_2_5 0
y_6_3_1 0
y_6_3_2 0
y_6_3_3 0
y_6_3_4 0
y_6_3_5 0
y_6_4_1 0
y_6_4_2 0
y_6_4_3 0
y_6_4_4 0
y_6_4_5 0
y_6_5_1 0
y_6_5_2 0
y_6_5_3 0
y_6_5_4 0
y_6_5_5 0
y_6_7_1 0
y_6_7_2 0
y_6_7_3 0
y_6_7_4 0
y_6_7_5 0
y_6_8_1 0
y_6_8_2 0
y_6_8_3 0
y_6_8_4 0
y_6_8_5 0
y_6_9_1 0
y_6_9_2 0
y_6_9_3 0
y_6_9_4 0
y_6_9_5 0
y_6_10_1 0
y_6_10_2 0
y_6_10_3 0
y_6_10_4 0
y_6_10_5 0
y_6_11_1 0
y_6_11_2 0
y_6_11_3 0
y_6_11_4 0
y_6_11_5 0
y_6_12_1 0
y_6_12_2 0
y_6_12_3 0
y_6_12_4 0
y_6_12_5 0
y_6_13_1 0
y_6_13_2 0
y_6_13_3 0
y_6_13_4 0
y_6_13_5 0
y_7_1_1 0
y_7_1_2 0
y_7_1_3 0
y_7_1_4 0
y_7_1_5 0
y_7_2_1 0
y_7_2_2 0
y_7_2_3 0
y_7_2_4 0
y_7_2_5 0
y_7_3_1 0
y_7_3_2 0
y_7_3_3 0
y_7_3_4 0
y_7_3_5 0
y_7_4_1 0
y_7_4_2 0
y_7_4_3 0
y_7_4_4 0
y_7_4_5 0
y_7_5_1 0
y_7_5_2 0
y_7_5_3 0
y_7_5_4 0
y_7_5_5 0
y_7_6_1 0
y_7_6_2 0
y_7_6_3 0
y_7_6_4 0
y_7_6_5 0
y_7_8_1 0
y_7_8_2 0
y_7_8_3 0
y_7_8_4 0
y_7_8_5 0
y_7_9_1 0
y_7_9_2 0
y_7_9_3 0
y_7_9_4 0
y_7_9_5 0
y_7_10_1 0
y_7_10_2 0
y_7_10_3 0
y_7_10_4 0
y_7_10_5 0
y_7_11_1 0
y_7_11_2 0
y_7_11_3 0
y_7_11_4 0
y_7_11_5 0
y_7_12_1 0
y_7_12_2 0
y_7_12_3 0
y_7_12_4 0
y_7_12_5 0
y_7_13_1 0
y_7_13_2 0
y_7_13_3 0
y_7_13_4 0
y_7_13_5 0
y_8_1_1 0
y_8_1_2 0
y_8_1_3 0
y_8_1_4 0
y_8_1_5 0
y_8_2_1 0
y_8_2_2 0
y_8_2_3 0
y_8_2_4 0
y_8_2_5 0
y_8_3_1 0
y_8_3_2 0
y_8_3_3 0
y_8_3_4 0
y_8_3_5 0
y_8_4_1 0
y_8_4_2 0
y_8_4_3 0
y_8_4_4 0
y_8_4_5 0
y_8_5_1 0
y_8_5_2 0
y_8_5_3 0
y_8_5_4 0
y_8_5_5 0
y_8_6_1 0
y_8_6_2 0
y_8_6_3 0
y_8_6_4 0
y_8_6_5 0
y_8_7_1 0
y_8_7_2 0
y_8_7_3 0
y_8_7_4 0
y_8_7_5 0
y_8_9_1 0
y_8_9_2 0
y_8_9_3 0
y_8_9_4 0
y_8_9_5 0
y_8_10_1 0
y_8_10_2 0
y_8_10_3 0
y_8_10_4 0
y_8_10_5 0
y_8_11_1 0
y_8_11_2 0
y_8_11_3 0
y_8_11_4 0
y_8_11_5 0
y_8_12_1 0
y_8_12_2 0
y_8_12_3 0
y_8_12_4 0
y_8_12_5 0
y_8_13_1 1
y_8_13_2 1
y_8_13_3 1
y_8_13_4 1
y_8_13_5 1
y_9_1_1 0
y_9_1_2 0
y_9_1_3 0
y_9_1_4 0
y_9_1_5 0
y_9_2_1 0
y_9_2_2 0
y_9_2_3 0
y_9_2_4 0
y_9_2_5 0
y_9_3_1 0
y_9_3_2 0
y_9_3_3 0
y_9_3_4 0
y_9_3_5 0
y_9_4_1 0
y_9_4_2 0
y_9_4_3 0
y_9_4_4 0
y_9_4_5 0
y_9_5_1 0
y_9_5_2 0
y_9_5_3 0
y_9_5_4 0
y_9_5_5 0
y_9_6_1 0
y_9_6_2 0
y_9_6_3 0
y_9_6_4 0
y_9_6_5 0
y_9_7_1 0
y_9_7_2 0
y_9_7_3 0
y_9_7_4 0
y_9_7_5 0
y_9_8_1 0
y_9_8_2 0
y_9_8_3 0
y_9_8_4 0
y_9_8_5 0
y_9_10_1 0
y_9_10_2 0
y_9_10_3 0
y_9_10_4 0
y_9_10_5 0
y_9_11_1 0
y_9_11_2 0
y_9_11_3 0
y_9_11_4 0
y_9_11_5 0
y_9_12_1 0
y_9_12_2 0
y_9_12_3 0
y_9_12_4 0
y_9_12_5 0
y_9_13_1 0
y_9_13_2 0
y_9_13_3 0
y_9_13_4 0
y_9_13_5 0
y_10_1_1 0
y_10_1_2 0
y_10_1_3 0
y_10_1_4 0
y_10_1_5 0
y_10_2_1 0
y_10_2_2 0
y_10_2_3 0
y_10_2_4 0
y_10_2_5 0
y_10_3_1 0
y_10_3_2 0
y_10_3_3 0
y_10_3_4 0
y_10_3_5 0
y_10_4_1 0
y_10_4_2 0
y_10_4_3 0
y_10_4_4 0
y_10_4_5 0
y_10_5_1 0
y_10_5_2 0
y_10_5_3 0
y_10_5_4 0
y_10_5_5 0
y_10_6_1 0
y_10_6_2 0
y_10_6_3 0
y_10_6_4 0
y_10_6_5 0
y_10_7_1 0
y_10_7_2 0
y_10_7_3 0
y_10_7_4 0
y_10_7_5 0
y_10_8_1 0
y_10_8_2 0
y_10_8_3 0
y_10_8_4 0
y_10_8_5 0
y_10_9_1 0
y_10_9_2 0
y_10_9_3 0
y_10_9_4 0
y_10_9_5 0
y_10_11_1 0
y_10_11_2 0
y_10_11_3 0
y_10_11_4 0
y_10_11_5 0
y_10_12_1 0
y_10_12_2 0
y_10_12_3 0
y_10_12_4 0
y_10_12_5 0
y_10_13_1 0
y_10_13_2 0
y_10_13_3 0
y_10_13_4 0
y_10_13_5 0
Q_0_1 0
Q_0_2 0
Q_0_3 0
Q_0_4 0
Q_0_5 0
Q_1_1 2.2589500000000081e+02
Q_1_2 2.3493500000000094e+02
Q_1_3 2.3254000000000167e+02
Q_1_4 2.3874500000000171e+02
Q_1_5 2.3307000000000164e+02
Q_2_1 222.04
Q_2_2 220.78
Q_2_3 200.845
Q_2_4 215.21
Q_2_5 210.885
Q_3_1 3.3184999999999420e+01
Q_3_2 2.7859999999999417e+01
Q_3_3 2.2339999999999417e+01
Q_3_4 2.5939999999999419e+01
Q_3_5 2.8759999999999415e+01
Q_4_1 6.6729999999999492e+01
Q_4_2 67.4749999999995
Q_4_3 68.55
Q_4_4 6.9724999999999483e+01
Q_4_5 67.3949999999995
Q_5_1 2.0311500000000024e+02
Q_5_2 211.69
Q_5_3 2.1034000000000020e+02
Q_5_4 215.54
Q_5_5 204.085
Q_6_1 140.565
Q_6_2 140.1
Q_6_3 116.13
Q_6_4 134.775
Q_6_5 123.54
Q_7_1 115.95
Q_7_2 1.1734500000000014e+02
Q_7_3 1.1927000000000086e+02
Q_7_4 1.1959000000000088e+02
Q_7_5 1.1726500000000087e+02
Q_8_1 2.7103999999999968e+02
Q_8_2 290.85
Q_8_3 2.7015999999999963e+02
Q_8_4 2.7930999999999943e+02
Q_8_5 2.6301499999999942e+02
Q_9_1 140.485
Q_9_2 140.77
Q_9_3 142.685
Q_9_4 148.695
Q_9_5 138.675
Q_10_1 48.805
Q_10_2 4.7439999999999273e+01
Q_10_3 52.63
Q_10_4 50.305
Q_10_5 46.3
Q_11_1 2.2589500000000081e+02
Q_11_2 2.3493500000000094e+02
Q_11_3 2.3254000000000167e+02
Q_11_4 2.3874500000000171e+02
Q_11_5 2.3307000000000164e+02
Q_12_1 222.04
Q_12_2 220.78
Q_12_3 200.845
Q_12_4 215.21
Q_12_5 210.885
Q_13_1 2.7103999999999968e+02
Q_13_2 290.85
Q_13_3 2.7015999999999963e+02
Q_13_4 2.7930999999999943e+02
Q_13_5 2.6301499999999942e+02
R_11_1 2.5895000000000806e+01
R_11_2 3.4935000000000940e+01
R_11_3 3.2540000000001669e+01
R_11_4 3.8745000000001710e+01
R_11_5 3.3070000000001642e+01
R_12_1 22.04
R_12_2 20.78
R_12_3 0.845
R_12_4 15.21
R_12_5 10.885
R_13_1 7.1039999999999679e+01
R_13_2 90.85
R_13_3 7.0159999999999627e+01
R_13_4 7.9309999999999434e+01
R_13_5 6.3014999999999418e+01
L_1_1 0
L_1_2 0
L_1_3 0
L_1_4 0
L_1_5 0
L_2_1 0
L_2_2 0
L_2_3 0
L_2_4 0
L_2_5 0
L_3_1 13.735
L_3_2 8.2450000000000010e+00
L_3_3 12.575
L_3_4 11.55
L_3_5 10.675
L_4_1 5.9
L_4_2 12.58
L_4_3 13.77
L_4_4 14.23
L_4_5 13.42
L_5_1 7.25
L_5_2 5.4
L_5_3 4.755
L_5_4 5.8
L_5_5 7.48
L_6_1 0
L_6_2 0
L_6_3 0
L_6_4 0
L_6_5 0
L_7_1 15.93
L_7_2 1.4815000000000001e+01
L_7_3 1.1334999999999999e+01
L_7_4 20.485
L_7_5 10.89
L_8_1 0
L_8_2 0
L_8_3 0
L_8_4 0
L_8_5 0
L_9_1 11.73
L_9_2 14.67
L_9_3 5.58
L_9_4 11.76
L_9_5 13.45
L_10_1 9.145
L_10_2 11.24
L_10_3 9.1
L_10_4 10.35
L_10_5 6.615
rho_1_1 1
rho_1_2 1
rho_1_3 1
rho_1_4 1
rho_1_5 1
rho_2_1 1
rho_2_2 1
rho_2_3 1
rho_2_4 1
rho_2_5 1
rho_3_1 0
rho_3_2 0
rho_3_3 0
rho_3_4 0
rho_3_5 0
rho_4_1 0
rho_4_2 0
rho_4_3 0
rho_4_4 0
rho_4_5 0
rho_5_1 1
rho_5_2 1
rho_5_3 1
rho_5_4 1
rho_5_5 1
rho_6_1 0
rho_6_2 0
rho_6_3 0
rho_6_4 0
rho_6_5 0
rho_7_1 0
rho_7_2 0
rho_7_3 0
rho_7_4 0
rho_7_5 0
rho_8_1 1
rho_8_2 1
rho_8_3 1
rho_8_4 1
rho_8_5 1
rho_9_1 0
rho_9_2 0
rho_9_3 0
rho_9_4 0
rho_9_5 0
rho_10_1 0
rho_10_2 0
rho_10_3 0
rho_10_4 0
rho_10_5 0
lambd_1_1 0
lambd_1_2 0
lambd_1_3 0
lambd_1_4 0
lambd_1_5 0
lambd_2_1 0
lambd_2_2 0
lambd_2_3 0
lambd_2_4 0
lambd_2_5 0
lambd_3_1 0
lambd_3_2 0
lambd_3_3 0
lambd_3_4 0
lambd_3_5 0
lambd_4_1 0
lambd_4_2 0
lambd_4_3 0
lambd_4_4 0
lambd_4_5 0
lambd_5_1 0
lambd_5_2 0
lambd_5_3 0
lambd_5_4 0
lambd_5_5 0
lambd_6_1 0
lambd_6_2 0
lambd_6_3 0
lambd_6_4 0
lambd_6_5 0
lambd_7_1 0
lambd_7_2 0
lambd_7_3 0
lambd_7_4 0
lambd_7_5 0
lambd_8_1 0
lambd_8_2 0
lambd_8_3 0
lambd_8_4 0
lambd_8_5 0
lambd_9_1 0
lambd_9_2 0
lambd_9_3 0
lambd_9_4 0
lambd_9_5 0
lambd_10_1 0
lambd_10_2 0
lambd_10_3 0
lambd_10_4 0
lambd_10_5 0
alpha_1_1 0
alpha_1_2 0
alpha_1_3 0
alpha_1_4 0
alpha_1_5 0
alpha_2_1 0
alpha_2_2 0
alpha_2_3 0
alpha_2_4 0
alpha_2_5 0
alpha_3_1 0
alpha_3_2 0
alpha_3_3 0
alpha_3_4 0
alpha_3_5 0
alpha_4_1 0
alpha_4_2 0
alpha_4_3 0
alpha_4_4 0
alpha_4_5 0
alpha_5_1 1
alpha_5_2 1
alpha_5_3 1
alpha_5_4 1
alpha_5_5 1
alpha_6_1 0
alpha_6_2 0
alpha_6_3 0
alpha_6_4 0
alpha_6_5 0
alpha_7_1 0
alpha_7_2 0
alpha_7_3 0
alpha_7_4 0
alpha_7_5 0
alpha_8_1 0
alpha_8_2 0
alpha_8_3 0
alpha_8_4 0
alpha_8_5 0
alpha_9_1 0
alpha_9_2 0
alpha_9_3 0
alpha_9_4 0
alpha_9_5 0
alpha_10_1 0
alpha_10_2 0
alpha_10_3 0
alpha_10_4 0
alpha_10_5 0
